proyfinal/src/viki/013/experimentInOfficeAgust.take6.output/5ee330cb-e524-4883-a499-3649f958cf20.als.out
Reading from standard input... Use '--help' for help.
============================[ Problem Statistics ]=============================
|                                                                             |
|  Number of variables:         87638                                         |
|  Number of clauses:          161767                                         |
|  Parse time:                   0.04 s                                       |
|                                                                             |
============================[ Search Statistics ]==============================
| Conflicts |          ORIGINAL         |          LEARNT          | Progress |
|           |    Vars  Clauses Literals |    Limit  Clauses Lit/Cl |          |
===============================================================================
|       100 |   62272   104837   261906 |    38440      100     13 | 28.944 % |
|       250 |   62272   104837   261906 |    42284      250     14 | 28.944 % |
|       475 |   62272   104837   261906 |    46512      475     69 | 28.944 % |
|       812 |   62272   104837   261906 |    51163      812     86 | 28.944 % |
|      1318 |   62272   104837   261906 |    56280     1318    162 | 28.944 % |
|      2077 |   62271   104834   261900 |    61908     2076    140 | 28.945 % |
|      3216 |   62271   104834   261900 |    68099     3215    121 | 28.945 % |
|      4924 |   62270   104790   261810 |    74909     4920    114 | 28.946 % |
|      7486 |   62223   104573   261350 |    82400     7200    101 | 29.000 % |
===============================================================================
restarts              : 38
conflicts             : 9223           (6106 /sec)
decisions             : 35516          (0.00 % random) (23514 /sec)
propagations          : 13323657       (8821160 /sec)
conflict literals     : 850524         (53.05 % deleted)
Memory used           : 34.64 MB
CPU time              : 1.51042 s

UNSATISFIABLE
